c Reduced graph for p26 generated by Cyril Grelier
p edge 37 131
e 1 8
e 1 17
e 1 24
e 1 36
e 2 4
e 2 6
e 2 12
e 2 13
e 2 14
e 2 17
e 2 21
e 2 22
e 2 31
e 2 35
e 3 12
e 3 15
e 3 21
e 3 29
e 3 30
e 3 32
e 3 33
e 3 36
e 3 37
e 4 7
e 4 17
e 4 20
e 4 21
e 4 22
e 4 31
e 4 32
e 4 35
e 5 7
e 5 14
e 5 23
e 5 24
e 5 25
e 5 26
e 5 27
e 5 34
e 6 11
e 6 12
e 6 13
e 6 14
e 6 16
e 6 25
e 7 14
e 7 20
e 7 24
e 7 26
e 7 32
e 8 30
e 8 35
e 9 10
e 9 15
e 9 16
e 9 18
e 9 20
e 10 13
e 10 16
e 10 19
e 10 23
e 10 28
e 11 16
e 11 18
e 11 25
e 11 28
e 11 31
e 12 13
e 12 14
e 12 30
e 12 32
e 12 33
e 12 36
e 13 14
e 13 19
e 13 23
e 13 28
e 14 24
e 14 26
e 15 18
e 15 20
e 15 21
e 15 29
e 15 37
e 16 25
e 17 21
e 17 22
e 17 24
e 17 31
e 17 35
e 17 36
e 18 20
e 18 28
e 18 31
e 19 22
e 19 23
e 19 26
e 19 28
e 19 33
e 20 32
e 21 22
e 21 29
e 21 31
e 21 35
e 21 37
e 22 26
e 22 31
e 22 33
e 22 35
e 23 25
e 23 27
e 23 28
e 23 34
e 24 26
e 24 36
e 25 27
e 25 34
e 26 33
e 27 29
e 27 34
e 28 31
e 29 37
e 30 32
e 30 33
e 30 35
e 30 36
e 31 35
e 32 33
e 32 36
e 33 36
e 34 37
